c ind 11 13 15 21 23 25 27 3 32 34 0
c ind 36 4 41 67 68 70 71 73 74 76 0
c ind 77 79 80 84 89 9 0
p cnf 149 442
-1 -2 5 0
-1 2 16 0
-10 -11 4 0
-10 -4 11 0
-100 101 0
-100 12 0
-101 40 0
-101 52 0
-102 -103 106 0
-102 103 108 0
-103 104 0
-103 26 0
-104 105 0
-104 24 0
-105 46 0
-105 98 0
-106 107 0
-106 14 0
-107 53 0
-107 7 0
-108 -109 90 0
-108 109 112 0
-109 110 0
-109 26 0
-110 111 0
-110 19 0
-111 -25 41 0
-111 -41 25 0
-112 -113 115 0
-112 113 132 0
-113 114 0
-113 26 0
-114 111 0
-114 45 0
-115 -116 5 0
-115 116 125 0
-116 117 0
-116 121 0
-117 118 0
-117 60 0
-118 119 0
-118 60 0
-119 120 0
-119 60 0
-12 -13 4 0
-12 -4 13 0
-120 -32 41 0
-120 -41 32 0
-121 122 0
-121 60 0
-122 123 0
-122 60 0
-123 124 0
-123 60 0
-124 -34 41 0
-124 -41 34 0
-125 126 0
-125 131 0
-126 127 0
-126 130 0
-127 128 0
-127 129 0
-128 -21 9 0
-128 -9 21 0
-129 -11 23 0
-129 -23 11 0
-130 -13 25 0
-130 -25 13 0
-131 -15 27 0
-131 -27 15 0
-132 -133 135 0
-132 133 137 0
-133 134 0
-133 26 0
-134 111 0
-134 97 0
-135 136 0
-135 14 0
-136 101 0
-136 53 0
-137 -138 140 0
-137 138 142 0
-138 139 0
-138 26 0
-139 105 0
-139 111 0
-14 -15 4 0
-14 -4 15 0
-140 141 0
-140 6 0
-141 -15 41 0
-141 -41 15 0
-142 -143 145 0
-142 143 146 0
-143 144 0
-143 18 0
-144 -27 41 0
-144 -41 27 0
-145 141 0
-145 38 0
-146 -147 148 0
-146 147 5 0
-147 144 0
-147 44 0
-148 -149 5 0
-148 149 125 0
-149 56 117 0
-16 -17 28 0
-16 17 42 0
-17 18 0
-17 26 0
-18 19 0
-18 24 0
-19 20 0
-19 22 0
-2 -3 4 0
-2 -4 3 0
-20 -21 4 0
-20 -4 21 0
-22 -23 4 0
-22 -4 23 0
-24 -25 4 0
-24 -4 25 0
-26 -27 4 0
-26 -4 27 0
-28 -29 37 0
-28 29 5 0
-29 30 35 0
-30 31 0
-30 33 0
-31 -32 4 0
-31 -4 32 0
-33 -34 4 0
-33 -4 34 0
-35 -36 4 0
-35 -4 36 0
-37 14 0
-37 38 0
-38 12 0
-38 39 0
-39 10 0
-39 40 0
-4 0
-40 -41 9 0
-40 -9 41 0
-42 -43 47 0
-42 43 94 0
-43 26 0
-43 44 0
-44 24 0
-44 45 0
-45 22 0
-45 46 0
-46 -21 41 0
-46 -41 21 0
-47 -48 49 0
-47 48 54 0
-48 31 0
-48 35 0
-49 14 0
-49 50 0
-5 14 0
-5 6 0
-50 51 0
-50 53 0
-51 52 0
-51 8 0
-52 -11 41 0
-52 -41 11 0
-53 -13 41 0
-53 -41 13 0
-54 -55 61 0
-54 55 5 0
-55 30 0
-55 56 0
-56 57 0
-56 60 0
-57 58 0
-57 60 0
-58 59 0
-58 60 0
-59 -36 41 0
-59 -41 36 0
-6 12 0
-6 7 0
-60 -4 4 0
-61 -62 81 0
-61 62 90 0
-62 63 0
-62 78 0
-63 64 0
-63 75 0
-64 65 0
-64 72 0
-65 66 0
-65 69 0
-66 -67 68 0
-66 -68 67 0
-69 -70 71 0
-69 -71 70 0
-7 10 0
-7 8 0
-72 -73 74 0
-72 -74 73 0
-75 -76 77 0
-75 -77 76 0
-78 -79 80 0
-78 -80 79 0
-8 -4 9 0
-8 -9 4 0
-81 -82 90 0
-81 82 92 0
-82 83 0
-82 85 0
-83 -4 84 0
-83 -84 4 0
-85 60 0
-85 86 0
-86 60 0
-86 87 0
-87 60 0
-87 88 0
-88 -41 89 0
-88 -89 41 0
-90 14 0
-90 91 0
-91 39 0
-91 53 0
-92 14 0
-92 93 0
-93 12 0
-93 51 0
-94 -95 99 0
-94 95 102 0
-95 26 0
-95 96 0
-96 24 0
-96 97 0
-97 20 0
-97 98 0
-98 -23 41 0
-98 -41 23 0
-99 100 0
-99 14 0
1 -2 -5 0
1 -5 -16 0
1 0
1 2 -16 0
10 -11 -4 0
10 11 4 0
100 -101 -12 0
101 -40 -52 0
102 -103 -106 0
102 -106 -108 0
102 103 -108 0
103 -104 -26 0
104 -105 -24 0
105 -46 -98 0
106 -107 -14 0
107 -7 -53 0
108 -109 -90 0
108 -90 -112 0
108 109 -112 0
109 -110 -26 0
110 -19 -111 0
111 -25 -41 0
111 25 41 0
112 -113 -115 0
112 -115 -132 0
112 113 -132 0
113 -114 -26 0
114 -45 -111 0
115 -116 -5 0
115 -5 -125 0
115 116 -125 0
116 -117 -121 0
117 -118 -60 0
118 -119 -60 0
119 -120 -60 0
12 -13 -4 0
12 13 4 0
120 -32 -41 0
120 32 41 0
121 -122 -60 0
122 -123 -60 0
123 -124 -60 0
124 -34 -41 0
124 34 41 0
125 -126 -131 0
126 -127 -130 0
127 -128 -129 0
128 -9 -21 0
128 9 21 0
129 -11 -23 0
129 11 23 0
130 -13 -25 0
130 13 25 0
131 -15 -27 0
131 15 27 0
132 -133 -135 0
132 -135 -137 0
132 133 -137 0
133 -134 -26 0
134 -97 -111 0
135 -136 -14 0
136 -101 -53 0
137 -138 -140 0
137 -140 -142 0
137 138 -142 0
138 -139 -26 0
139 -105 -111 0
14 -15 -4 0
14 15 4 0
140 -6 -141 0
141 -15 -41 0
141 15 41 0
142 -143 -145 0
142 -145 -146 0
142 143 -146 0
143 -18 -144 0
144 -27 -41 0
144 27 41 0
145 -38 -141 0
146 -147 -148 0
146 -148 -5 0
146 147 -5 0
147 -44 -144 0
148 -149 -5 0
148 -5 -125 0
148 149 -125 0
149 -117 0
149 -56 0
16 -17 -28 0
16 -28 -42 0
16 17 -42 0
17 -18 -26 0
18 -19 -24 0
19 -20 -22 0
2 -3 -4 0
2 3 4 0
20 -21 -4 0
20 21 4 0
22 -23 -4 0
22 23 4 0
24 -25 -4 0
24 25 4 0
26 -27 -4 0
26 27 4 0
28 -29 -37 0
28 -37 -5 0
28 29 -5 0
29 -30 0
29 -35 0
30 -31 -33 0
31 -32 -4 0
31 32 4 0
33 -34 -4 0
33 34 4 0
35 -36 -4 0
35 36 4 0
37 -38 -14 0
38 -39 -12 0
39 -40 -10 0
40 -9 -41 0
40 9 41 0
41 0
42 -43 -47 0
42 -47 -94 0
42 43 -94 0
43 -44 -26 0
44 -45 -24 0
45 -46 -22 0
46 -21 -41 0
46 21 41 0
47 -48 -49 0
47 -49 -54 0
47 48 -54 0
48 -35 -31 0
49 -50 -14 0
5 -6 -14 0
50 -51 -53 0
51 -8 -52 0
52 -11 -41 0
52 11 41 0
53 -13 -41 0
53 13 41 0
54 -55 -61 0
54 -61 -5 0
54 55 -5 0
55 -30 -56 0
56 -57 -60 0
57 -58 -60 0
58 -59 -60 0
59 -36 -41 0
59 36 41 0
6 -7 -12 0
60 -4 -4 0
60 4 4 0
61 -62 -81 0
61 -81 -90 0
61 62 -90 0
62 -63 -78 0
63 -64 -75 0
64 -65 -72 0
65 -66 -69 0
66 -67 -68 0
66 67 68 0
69 -70 -71 0
69 70 71 0
7 -8 -10 0
72 -73 -74 0
72 73 74 0
75 -76 -77 0
75 76 77 0
78 -79 -80 0
78 79 80 0
8 -9 -4 0
8 9 4 0
81 -82 -90 0
81 -90 -92 0
81 82 -92 0
82 -83 -85 0
83 -84 -4 0
83 84 4 0
85 -86 -60 0
86 -87 -60 0
87 -88 -60 0
88 -89 -41 0
88 89 41 0
90 -91 -14 0
91 -39 -53 0
92 -93 -14 0
93 -51 -12 0
94 -95 -99 0
94 -99 -102 0
94 95 -102 0
95 -96 -26 0
96 -97 -24 0
97 -20 -98 0
98 -23 -41 0
98 23 41 0
99 -100 -14 0
